data;
param n := 6;

param V := 
1 12
2 15
3 5
4 16
5 17
6 10;

param P := 1 2
2 6
3 1
4 7
5 8
6 1;

param M := 20;

param k := 3;

param C :=
1 1
2 1
3 1
4 2
5 2
6 3;

param Q :=
1 1
2 1
3 1;

end;
